MILP_speck/line-r9.sol
# Objective value = 15
pro1R1 0
pro2R1 0
pro3R1 0
pro4R1 0
pro5R1 0
pro6R1 0
pro7R1 1
pro8R1 0
pro9R1 0
pro10R1 0
pro11R1 0
pro12R1 0
pro13R1 0
pro14R1 0
pro15R1 0
pro1R2 0
pro2R2 0
pro3R2 0
pro4R2 0
pro5R2 0
pro6R2 0
pro7R2 1
pro8R2 0
pro9R2 0
pro10R2 0
pro11R2 0
pro12R2 0
pro13R2 0
pro14R2 0
pro15R2 0
pro1R3 0
pro2R3 0
pro3R3 0
pro4R3 0
pro5R3 0
pro6R3 0
pro7R3 1
pro8R3 1
pro9R3 0
pro10R3 0
pro11R3 0
pro12R3 0
pro13R3 0
pro14R3 0
pro15R3 0
pro1R4 0
pro2R4 0
pro3R4 0
pro4R4 0
pro5R4 0
pro6R4 0
pro7R4 0
pro8R4 0
pro9R4 0
pro10R4 0
pro11R4 0
pro12R4 0
pro13R4 0
pro14R4 0
pro15R4 0
pro1R5 0
pro2R5 0
pro3R5 0
pro4R5 0
pro5R5 0
pro6R5 0
pro7R5 0
pro8R5 0
pro9R5 0
pro10R5 0
pro11R5 0
pro12R5 1
pro13R5 1
pro14R5 0
pro15R5 0
pro1R6 1
pro2R6 0
pro3R6 0
pro4R6 0
pro5R6 0
pro6R6 0
pro7R6 0
pro8R6 0
pro9R6 0
pro10R6 1
pro11R6 0
pro12R6 0
pro13R6 0
pro14R6 0
pro15R6 0
pro1R7 0
pro2R7 0
pro3R7 0
pro4R7 0
pro5R7 0
pro6R7 1
pro7R7 0
pro8R7 0
pro9R7 0
pro10R7 0
pro11R7 0
pro12R7 0
pro13R7 0
pro14R7 0
pro15R7 0
pro1R8 0
pro2R8 0
pro3R8 0
pro4R8 1
pro5R8 0
pro6R8 1
pro7R8 0
pro8R8 0
pro9R8 0
pro10R8 0
pro11R8 1
pro12R8 0
pro13R8 1
pro14R8 1
pro15R8 0
pro1R9 0
pro2R9 1
pro3R9 0
pro4R9 0
pro5R9 0
pro6R9 0
pro7R9 0
pro8R9 0
pro9R9 0
pro10R9 0
pro11R9 0
pro12R9 0
pro13R9 0
pro14R9 0
pro15R9 0
p0R1 0
p1R1 0
p2R1 0
p3R1 0
p4R1 0
p5R1 0
p6R1 0
p7R1 0
p8R1 0
p9R1 0
p10R1 0
p11R1 0
p12R1 0
p13R1 0
p14R1 0
p15R1 1
p16R1 0
p17R1 1
p18R1 0
p19R1 0
p20R1 0
p21R1 0
p22R1 1
p23R1 0
p24R1 1
p25R1 1
p26R1 1
p27R1 0
p28R1 0
p29R1 0
p30R1 0
p31R1 0
pro0R1 0
pro0R2 0
pro0R3 0
pro0R4 0
pro0R5 0
pro0R6 0
pro0R7 0
pro0R8 0
pro0R9 0
p30R2 0
x4_1_0 0
d16R1 0
p31R2 1
x4_1_1 0
d17R1 1
p16R2 0
x4_1_2 0
d18R1 0
p17R2 0
x4_1_3 0
d19R1 0
p18R2 0
x4_1_4 0
d20R1 0
p19R2 0
x4_1_5 0
d21R1 0
p20R2 0
x4_1_6 1
d22R1 1
p21R2 0
x4_1_7 0
d23R1 0
p22R2 1
x4_1_8 0
d24R1 1
p23R2 1
x4_1_9 0
d25R1 1
p24R2 1
x4_1_10 0
d26R1 1
p25R2 0
x4_1_11 0
d27R1 0
p26R2 0
x4_1_12 0
d28R1 0
p27R2 0
x4_1_13 0
d29R1 0
p28R2 0
x4_1_14 0
d30R1 0
p29R2 0
x4_1_15 0
d31R1 0
x3_1_0 0
p0R2 0
d0R1 0
x3_1_1 0
p1R2 0
d1R1 0
x3_1_2 0
p2R2 0
d2R1 0
x3_1_3 0
p3R2 0
d3R1 0
x3_1_4 0
p4R2 0
d4R1 0
x3_1_5 0
p5R2 0
d5R1 0
x3_1_6 1
p6R2 0
d6R1 1
x3_1_7 1
p7R2 0
d7R1 1
x3_1_8 0
p8R2 1
d8R1 1
x3_1_9 0
p9R2 0
d9R1 0
x3_1_10 0
p10R2 0
d10R1 0
x3_1_11 0
p11R2 0
d11R1 0
x3_1_12 0
p12R2 0
d12R1 0
x3_1_13 0
p13R2 0
d13R1 0
x3_1_14 0
p14R2 0
d14R1 0
x3_1_15 0
p15R2 1
d15R1 1
pro16R1 0
p30R3 0
x4_2_0 0
d16R2 0
p31R3 0
x4_2_1 0
d17R2 0
p16R3 0
x4_2_2 0
d18R2 0
p17R3 0
x4_2_3 0
d19R2 0
p18R3 0
x4_2_4 0
d20R2 0
p19R3 0
x4_2_5 0
d21R2 0
p20R3 0
x4_2_6 1
d22R2 1
p21R3 0
x4_2_7 1
d23R2 1
p22R3 1
x4_2_8 0
d24R2 1
p23R3 0
x4_2_9 0
d25R2 0
p24R3 0
x4_2_10 0
d26R2 0
p25R3 0
x4_2_11 0
d27R2 0
p26R3 0
x4_2_12 0
d28R2 0
p27R3 0
x4_2_13 0
d29R2 0
p28R3 0
x4_2_14 0
d30R2 0
p29R3 0
x4_2_15 1
d31R2 1
x3_2_0 0
p0R3 0
d0R2 0
x3_2_1 0
p1R3 0
d1R2 0
x3_2_2 0
p2R3 0
d2R2 0
x3_2_3 0
p3R3 0
d3R2 0
x3_2_4 0
p4R3 0
d4R2 0
x3_2_5 0
p5R3 0
d5R2 0
x3_2_6 1
p6R3 0
d6R2 1
x3_2_7 0
p7R3 0
d7R2 0
x3_2_8 0
p8R3 0
d8R2 0
x3_2_9 0
p9R3 0
d9R2 0
x3_2_10 0
p10R3 0
d10R2 0
x3_2_11 0
p11R3 0
d11R2 0
x3_2_12 0
p12R3 0
d12R2 0
x3_2_13 0
p13R3 0
d13R2 0
x3_2_14 0
p14R3 0
d14R2 0
x3_2_15 1
p15R3 1
d15R2 1
pro16R2 1
p30R4 0
x4_3_0 0
d16R3 0
p31R4 0
x4_3_1 0
d17R3 0
p16R4 0
x4_3_2 0
d18R3 0
p17R4 0
x4_3_3 0
d19R3 0
p18R4 0
x4_3_4 0
d20R3 0
p19R4 0
x4_3_5 0
d21R3 0
p20R4 0
x4_3_6 1
d22R3 1
p21R4 0
x4_3_7 0
d23R3 0
p22R4 1
x4_3_8 1
d24R3 1
p23R4 0
x4_3_9 0
d25R3 0
p24R4 0
x4_3_10 0
d26R3 0
p25R4 0
x4_3_11 0
d27R3 0
p26R4 0
x4_3_12 0
d28R3 0
p27R4 0
x4_3_13 0
d29R3 0
p28R4 0
x4_3_14 0
d30R3 0
p29R4 0
x4_3_15 0
d31R3 0
x3_3_0 0
p0R4 0
d0R3 0
x3_3_1 0
p1R4 0
d1R3 0
x3_3_2 0
p2R4 0
d2R3 0
x3_3_3 0
p3R4 0
d3R3 0
x3_3_4 0
p4R4 0
d4R3 0
x3_3_5 0
p5R4 0
d5R3 0
x3_3_6 1
p6R4 0
d6R3 1
x3_3_7 0
p7R4 0
d7R3 0
x3_3_8 0
p8R4 0
d8R3 0
x3_3_9 0
p9R4 0
d9R3 0
x3_3_10 0
p10R4 0
d10R3 0
x3_3_11 0
p11R4 0
d11R3 0
x3_3_12 0
p12R4 0
d12R3 0
x3_3_13 0
p13R4 0
d13R3 0
x3_3_14 0
p14R4 0
d14R3 0
x3_3_15 0
p15R4 0
d15R3 0
pro16R3 0
p30R5 0
x4_4_0 0
d16R4 0
p31R5 0
x4_4_1 0
d17R4 0
p16R5 0
x4_4_2 0
d18R4 0
p17R5 0
x4_4_3 0
d19R4 0
p18R5 0
x4_4_4 0
d20R4 0
p19R5 0
x4_4_5 0
d21R4 0
p20R5 1
x4_4_6 0
d22R4 1
p21R5 0
x4_4_7 0
d23R4 0
p22R5 0
x4_4_8 0
d24R4 0
p23R5 0
x4_4_9 0
d25R4 0
p24R5 0
x4_4_10 0
d26R4 0
p25R5 0
x4_4_11 0
d27R4 0
p26R5 0
x4_4_12 0
d28R4 0
p27R5 0
x4_4_13 0
d29R4 0
p28R5 0
x4_4_14 0
d30R4 0
p29R5 0
x4_4_15 0
d31R4 0
x3_4_0 0
p0R5 0
d0R4 0
x3_4_1 0
p1R5 0
d1R4 0
x3_4_2 0
p2R5 0
d2R4 0
x3_4_3 0
p3R5 0
d3R4 0
x3_4_4 0
p4R5 1
d4R4 1
x3_4_5 0
p5R5 0
d5R4 0
x3_4_6 0
p6R5 0
d6R4 0
x3_4_7 0
p7R5 0
d7R4 0
x3_4_8 0
p8R5 0
d8R4 0
x3_4_9 0
p9R5 0
d9R4 0
x3_4_10 0
p10R5 0
d10R4 0
x3_4_11 0
p11R5 0
d11R4 0
x3_4_12 0
p12R5 0
d12R4 0
x3_4_13 0
p13R5 0
d13R4 0
x3_4_14 0
p14R5 0
d14R4 0
x3_4_15 0
p15R5 0
d15R4 0
pro16R4 0
p30R6 0
x4_5_0 0
d16R5 0
p31R6 0
x4_5_1 0
d17R5 0
p16R6 0
x4_5_2 0
d18R5 0
p17R6 0
x4_5_3 0
d19R5 0
p18R6 1
x4_5_4 0
d20R5 1
p19R6 0
x4_5_5 0
d21R5 0
p20R6 0
x4_5_6 0
d22R5 0
p21R6 0
x4_5_7 0
d23R5 0
p22R6 0
x4_5_8 0
d24R5 0
p23R6 0
x4_5_9 0
d25R5 0
p24R6 0
x4_5_10 0
d26R5 0
p25R6 1
x4_5_11 1
d27R5 1
p26R6 0
x4_5_12 0
d28R5 0
p27R6 1
x4_5_13 1
d29R5 1
p28R6 0
x4_5_14 0
d30R5 0
p29R6 0
x4_5_15 0
d31R5 0
x3_5_0 0
p0R6 0
d0R5 0
x3_5_1 0
p1R6 0
d1R5 0
x3_5_2 0
p2R6 1
d2R5 1
x3_5_3 0
p3R6 0
d3R5 0
x3_5_4 0
p4R6 0
d4R5 0
x3_5_5 0
p5R6 0
d5R5 0
x3_5_6 0
p6R6 0
d6R5 0
x3_5_7 0
p7R6 0
d7R5 0
x3_5_8 0
p8R6 0
d8R5 0
x3_5_9 0
p9R6 1
d9R5 1
x3_5_10 0
p10R6 0
d10R5 0
x3_5_11 1
p11R6 0
d11R5 1
x3_5_12 0
p12R6 0
d12R5 0
x3_5_13 0
p13R6 0
d13R5 0
x3_5_14 0
p14R6 0
d14R5 0
x3_5_15 0
p15R6 0
d15R5 0
pro16R5 0
p30R7 1
x4_6_0 1
d16R6 1
p31R7 1
x4_6_1 1
d17R6 1
p16R7 1
x4_6_2 0
d18R6 1
p17R7 0
x4_6_3 0
d19R6 0
p18R7 0
x4_6_4 0
d20R6 0
p19R7 0
x4_6_5 0
d21R6 0
p20R7 0
x4_6_6 0
d22R6 0
p21R7 0
x4_6_7 0
d23R6 0
p22R7 0
x4_6_8 0
d24R6 0
p23R7 0
x4_6_9 1
d25R6 1
p24R7 1
x4_6_10 1
d26R6 1
p25R7 1
x4_6_11 0
d27R6 1
p26R7 0
x4_6_12 0
d28R6 0
p27R7 0
x4_6_13 0
d29R6 0
p28R7 0
x4_6_14 0
d30R6 0
p29R7 0
x4_6_15 0
d31R6 0
x3_6_0 1
p0R7 0
d0R6 1
x3_6_1 0
p1R7 0
d1R6 0
x3_6_2 0
p2R7 0
d2R6 0
x3_6_3 0
p3R7 0
d3R6 0
x3_6_4 0
p4R7 0
d4R6 0
x3_6_5 0
p5R7 0
d5R6 0
x3_6_6 0
p6R7 0
d6R6 0
x3_6_7 0
p7R7 0
d7R6 0
x3_6_8 0
p8R7 1
d8R6 1
x3_6_9 1
p9R7 0
d9R6 1
x3_6_10 0
p10R7 0
d10R6 0
x3_6_11 0
p11R7 0
d11R6 0
x3_6_12 0
p12R7 0
d12R6 0
x3_6_13 0
p13R7 0
d13R6 0
x3_6_14 0
p14R7 1
d14R6 1
x3_6_15 0
p15R7 1
d15R6 1
pro16R6 0
p30R8 1
x4_7_0 0
d16R7 1
p31R8 0
x4_7_1 0
d17R7 0
p16R8 0
x4_7_2 0
d18R7 0
p17R8 0
x4_7_3 0
d19R7 0
p18R8 0
x4_7_4 0
d20R7 0
p19R8 1
x4_7_5 1
d21R7 1
p20R8 0
x4_7_6 0
d22R7 0
p21R8 0
x4_7_7 0
d23R7 0
p22R8 1
x4_7_8 0
d24R7 1
p23R8 1
x4_7_9 0
d25R7 1
p24R8 0
x4_7_10 0
d26R7 0
p25R8 0
x4_7_11 0
d27R7 0
p26R8 0
x4_7_12 0
d28R7 0
p27R8 0
x4_7_13 0
d29R7 0
p28R8 1
x4_7_14 0
d30R7 1
p29R8 0
x4_7_15 1
d31R7 1
x3_7_0 0
p0R8 0
d0R7 0
x3_7_1 0
p1R8 0
d1R7 0
x3_7_2 0
p2R8 0
d2R7 0
x3_7_3 0
p3R8 1
d3R7 1
x3_7_4 0
p4R8 0
d4R7 0
x3_7_5 1
p5R8 1
d5R7 1
x3_7_6 0
p6R8 1
d6R7 1
x3_7_7 0
p7R8 1
d7R7 1
x3_7_8 0
p8R8 0
d8R7 0
x3_7_9 0
p9R8 0
d9R7 0
x3_7_10 0
p10R8 0
d10R7 0
x3_7_11 0
p11R8 0
d11R7 0
x3_7_12 0
p12R8 1
d12R7 1
x3_7_13 0
p13R8 0
d13R7 0
x3_7_14 0
p14R8 1
d14R7 1
x3_7_15 1
p15R8 1
d15R7 1
pro16R7 1
p30R9 0
x4_8_0 0
d16R8 0
p31R9 0
x4_8_1 0
d17R8 0
p16R9 0
x4_8_2 0
d18R8 0
p17R9 0
x4_8_3 1
d19R8 1
p18R9 0
x4_8_4 0
d20R8 0
p19R9 1
x4_8_5 1
d21R8 1
p20R9 1
x4_8_6 0
d22R8 1
p21R9 1
x4_8_7 0
d23R8 1
p22R9 0
x4_8_8 0
d24R8 0
p23R9 0
x4_8_9 0
d25R8 0
p24R9 1
x4_8_10 1
d26R8 1
p25R9 0
x4_8_11 0
d27R8 0
p26R9 0
x4_8_12 1
d28R8 1
p27R9 1
x4_8_13 1
d29R8 1
p28R9 1
x4_8_14 0
d30R8 1
p29R9 0
x4_8_15 0
d31R8 0
x3_8_0 0
p0R9 0
d0R8 0
x3_8_1 0
p1R9 0
d1R8 0
x3_8_2 0
p2R9 0
d2R8 0
x3_8_3 1
p3R9 0
d3R8 1
x3_8_4 1
p4R9 0
d4R8 1
x3_8_5 1
p5R9 0
d5R8 1
x3_8_6 0
p6R9 0
d6R8 0
x3_8_7 0
p7R9 0
d7R8 0
x3_8_8 0
p8R9 1
d8R8 1
x3_8_9 0
p9R9 0
d9R8 0
x3_8_10 1
p10R9 1
d10R8 1
x3_8_11 1
p11R9 0
d11R8 1
x3_8_12 1
p12R9 0
d12R8 1
x3_8_13 0
p13R9 0
d13R8 0
x3_8_14 0
p14R9 0
d14R8 0
x3_8_15 0
p15R9 0
d15R8 0
pro16R8 0
p30R10 0
x4_9_0 0
d16R9 0
p31R10 1
x4_9_1 1
d17R9 1
p16R10 1
x4_9_2 1
d18R9 1
p17R10 1
x4_9_3 0
d19R9 1
p18R10 1
x4_9_4 0
d20R9 1
p19R10 1
x4_9_5 0
d21R9 1
p20R10 0
x4_9_6 0
d22R9 0
p21R10 0
x4_9_7 0
d23R9 0
p22R10 1
x4_9_8 0
d24R9 1
p23R10 0
x4_9_9 0
d25R9 0
p24R10 0
x4_9_10 0
d26R9 0
p25R10 1
x4_9_11 0
d27R9 1
p26R10 1
x4_9_12 0
d28R9 1
p27R10 0
x4_9_13 0
d29R9 0
p28R10 0
x4_9_14 0
d30R9 0
p29R10 1
x4_9_15 1
d31R9 1
x3_9_0 0
p0R10 1
d0R9 1
x3_9_1 1
p1R10 0
d1R9 1
x3_9_2 0
p2R10 1
d2R9 1
x3_9_3 0
p3R10 1
d3R9 1
x3_9_4 0
p4R10 0
d4R9 0
x3_9_5 0
p5R10 0
d5R9 0
x3_9_6 0
p6R10 1
d6R9 1
x3_9_7 0
p7R10 0
d7R9 0
x3_9_8 0
p8R10 0
d8R9 0
x3_9_9 0
p9R10 1
d9R9 1
x3_9_10 0
p10R10 1
d10R9 1
x3_9_11 0
p11R10 0
d11R9 0
x3_9_12 0
p12R10 0
d12R9 0
x3_9_13 0
p13R10 1
d13R9 1
x3_9_14 0
p14R10 0
d14R9 0
x3_9_15 1
p15R10 0
d15R9 1
pro16R9 1
